(set-logic QF_S)
(declare-fun var0 () String)
(assert (RegexIn var0 (RegexConcat (RegexPlus (RegexUnion (RegexPlus (RegexPlus (RegexUnion (RegexStar (RegexPlus (RegexUnion (RegexPlus (RegexStar (RegexStar (RegexUnion (RegexStar (Str2Reg "00")) (RegexStar (Str2Reg "111")))))) (RegexPlus (RegexStar (RegexStar (RegexUnion (RegexStar (Str2Reg "222")) (RegexStar (Str2Reg "333"))))))))) (RegexStar (RegexPlus (RegexPlus (RegexUnion (RegexUnion (RegexUnion (RegexUnion (RegexUnion (Str2Reg "444") (Str2Reg "555")) (RegexUnion (Str2Reg "6") (Str2Reg "777"))) (RegexUnion (RegexUnion (Str2Reg "88") (Str2Reg "99")) (RegexUnion (Str2Reg "aaa") (Str2Reg "bbb")))) (RegexUnion (RegexStar (RegexStar (Str2Reg "c"))) (RegexStar (RegexPlus (Str2Reg "d"))))) (RegexUnion (RegexStar (RegexStar (RegexPlus (Str2Reg "e")))) (RegexStar (RegexPlus (RegexPlus (Str2Reg "f")))))))))))) (RegexPlus (RegexPlus (RegexUnion (RegexUnion (RegexUnion (RegexPlus (RegexUnion (RegexPlus (RegexStar (RegexPlus (RegexPlus (Str2Reg "ggg"))))) (RegexPlus (RegexUnion (RegexUnion (RegexStar (Str2Reg "h")) (RegexStar (Str2Reg "i"))) (RegexUnion (RegexStar (Str2Reg "j")) (RegexStar (Str2Reg "k"))))))) (RegexPlus (RegexPlus (RegexUnion (RegexStar (RegexPlus (RegexPlus (Str2Reg "lll")))) (RegexStar (RegexStar (RegexPlus (Str2Reg "mm")))))))) (RegexUnion (RegexUnion (RegexPlus (RegexUnion (RegexUnion (RegexPlus (RegexStar (Str2Reg "nn"))) (RegexPlus (RegexUnion (Str2Reg "ooo") (Str2Reg "p")))) (RegexUnion (RegexPlus (RegexPlus (Str2Reg "qqq"))) (RegexPlus (RegexStar (Str2Reg "rr")))))) (RegexPlus (RegexPlus (RegexStar (RegexPlus (RegexUnion (Str2Reg "s") (Str2Reg "tt"))))))) (RegexUnion (RegexPlus (RegexStar (RegexPlus (RegexPlus (RegexStar (Str2Reg "uuu")))))) (RegexPlus (RegexPlus (RegexStar (RegexUnion (RegexStar (Str2Reg "vv")) (RegexStar (Str2Reg "w"))))))))) (RegexUnion (RegexPlus (RegexStar (RegexUnion (RegexUnion (RegexPlus (RegexUnion (RegexPlus (Str2Reg "xxx")) (RegexPlus (Str2Reg "yyy")))) (RegexPlus (RegexStar (RegexPlus (Str2Reg "z"))))) (RegexUnion (RegexStar (RegexUnion (RegexUnion (Str2Reg "AAA") (Str2Reg "B")) (RegexUnion (Str2Reg "CCC") (Str2Reg "D")))) (RegexStar (RegexUnion (RegexUnion (Str2Reg "EEE") (Str2Reg "F")) (RegexUnion (Str2Reg "GGG") (Str2Reg "HH")))))))) (RegexPlus (RegexPlus (RegexPlus (RegexStar (RegexPlus (RegexUnion (RegexStar (Str2Reg "III")) (RegexStar (Str2Reg "JJJ")))))))))))))) (RegexPlus (RegexUnion (RegexUnion (RegexStar (RegexPlus (RegexUnion (RegexStar (RegexPlus (RegexUnion (RegexUnion (RegexStar (RegexUnion (RegexUnion (Str2Reg "KKK") (Str2Reg "L")) (RegexUnion (Str2Reg "M") (Str2Reg "NNN")))) (RegexStar (RegexPlus (RegexStar (Str2Reg "OO"))))) (RegexUnion (RegexUnion (RegexStar (RegexPlus (Str2Reg "PP"))) (RegexStar (RegexPlus (Str2Reg "Q")))) (RegexUnion (RegexPlus (RegexStar (Str2Reg "R"))) (RegexPlus (RegexStar (Str2Reg "S")))))))) (RegexStar (RegexUnion (RegexPlus (RegexUnion (RegexStar (RegexStar (RegexStar (Str2Reg "TTT")))) (RegexStar (RegexStar (RegexUnion (Str2Reg "U") (Str2Reg "V")))))) (RegexPlus (RegexStar (RegexPlus (RegexUnion (RegexPlus (Str2Reg "WW")) (RegexPlus (Str2Reg "XXX"))))))))))) (RegexStar (RegexStar (RegexStar (RegexStar (RegexPlus (RegexPlus (RegexStar (RegexPlus (RegexUnion (RegexStar (Str2Reg "Y")) (RegexStar (Str2Reg "ZZZ")))))))))))) (RegexUnion (RegexStar (RegexUnion (RegexPlus (RegexUnion (RegexUnion (RegexPlus (RegexStar (RegexPlus (RegexStar (RegexStar (Str2Reg "!!")))))) (RegexPlus (RegexUnion (RegexUnion (RegexPlus (RegexPlus (Str2Reg "\"\"\""))) (RegexPlus (RegexPlus (Str2Reg "#")))) (RegexUnion (RegexUnion (RegexPlus (Str2Reg "$$$")) (RegexPlus (Str2Reg "%%%"))) (RegexUnion (RegexUnion (Str2Reg "&&") (Str2Reg "'''")) (RegexUnion (Str2Reg "(((") (Str2Reg ")))"))))))) (RegexUnion (RegexStar (RegexUnion (RegexStar (RegexUnion (RegexPlus (Str2Reg "***")) (RegexPlus (Str2Reg "+++")))) (RegexStar (RegexPlus (RegexUnion (Str2Reg ",,") (Str2Reg "-")))))) (RegexStar (RegexUnion (RegexStar (RegexStar (RegexUnion (Str2Reg "...") (Str2Reg "//")))) (RegexStar (RegexUnion (RegexPlus (Str2Reg ":::")) (RegexPlus (Str2Reg ";"))))))))) (RegexPlus (RegexStar (RegexPlus (RegexStar (RegexUnion (RegexUnion (RegexUnion (RegexUnion (Str2Reg "<") (Str2Reg "=")) (RegexUnion (Str2Reg ">>") (Str2Reg "?"))) (RegexUnion (RegexStar (Str2Reg "@")) (RegexStar (Str2Reg "[[[")))) (RegexUnion (RegexStar (RegexUnion (Str2Reg "\\\\") (Str2Reg "]]]"))) (RegexStar (RegexPlus (Str2Reg "^^^"))))))))))) (RegexStar (RegexStar (RegexStar (RegexStar (RegexUnion (RegexStar (RegexUnion (RegexPlus (RegexPlus (RegexStar (Str2Reg "___")))) (RegexPlus (RegexUnion (RegexPlus (Str2Reg "``")) (RegexPlus (Str2Reg "{{{")))))) (RegexStar (RegexUnion (RegexUnion (RegexStar (RegexUnion (Str2Reg "|") (Str2Reg "}}}"))) (RegexStar (RegexStar (Str2Reg "~~~")))) (RegexUnion (RegexUnion (RegexUnion (Str2Reg "00") (Str2Reg "1")) (RegexUnion (Str2Reg "222") (Str2Reg "333"))) (RegexUnion (RegexStar (Str2Reg "4")) (RegexStar (Str2Reg "55")))))))))))))))))
(assert (<= 15 (Length var0)))
(check-sat)